solution status: optimal solution found
objective value:                                    0
$_244_y                                            13 	(obj:0)
$_244_z                                            14 	(obj:0)
$_177_y                                            16 	(obj:0)
$_177_z                                            16 	(obj:0)
$_140_y                                            16 	(obj:0)
$_140_z                                            20 	(obj:0)
$_193_y                                            12 	(obj:0)
$_193_z                                            15 	(obj:0)
$_27_y                                             16 	(obj:0)
$_27_z                                             12 	(obj:0)
$_225_y                                            15 	(obj:0)
$_225_z                                            13 	(obj:0)
$_68_y                                             12 	(obj:0)
$_68_z                                             16 	(obj:0)
$_21_y                                              8 	(obj:0)
$_21_z                                             20 	(obj:0)
$_79_y                                             12 	(obj:0)
$_79_z                                             18 	(obj:0)
$_126_y                                            16 	(obj:0)
$_126_z                                            19 	(obj:0)
$_17_y                                             12 	(obj:0)
$_17_z                                             24 	(obj:0)
$_83_y                                             10 	(obj:0)
$_83_z                                             15 	(obj:0)
$_105_y                                            17 	(obj:0)
$_105_z                                            16 	(obj:0)
$_298_y                                            20 	(obj:0)
$_298_z                                            18 	(obj:0)
$_273_y                                            12 	(obj:0)
$_273_z                                            12 	(obj:0)
$_19_y                                              9 	(obj:0)
$_19_z                                              8 	(obj:0)
$_241_y                                            15 	(obj:0)
$_241_z                                            12 	(obj:0)
$_130_y                                            20 	(obj:0)
$_130_z                                            20 	(obj:0)
$_22_y                                             11 	(obj:0)
$_22_z                                             20 	(obj:0)
$_276_y                                            17 	(obj:0)
$_276_z                                            15 	(obj:0)
$_250_y                                            13 	(obj:0)
$_250_z                                            16 	(obj:0)
$_257_y                                            12 	(obj:0)
$_257_z                                            14 	(obj:0)
$_125_y                                            18 	(obj:0)
$_125_z                                            15 	(obj:0)
$_186_y                                            10 	(obj:0)
$_186_z                                            23 	(obj:0)
$_46_y                                             18 	(obj:0)
$_46_z                                             16 	(obj:0)
$_72_y                                             16 	(obj:0)
$_72_z                                             13 	(obj:0)
$_292_y                                            19 	(obj:0)
$_292_z                                            15 	(obj:0)
$_196_y                                            10 	(obj:0)
$_196_z                                            19 	(obj:0)
$_104_y                                             9 	(obj:0)
$_104_z                                            17 	(obj:0)
$_76_y                                              8 	(obj:0)
$_76_z                                             17 	(obj:0)
$_109_y                                            16 	(obj:0)
$_109_z                                            18 	(obj:0)
$_209_y                                            14 	(obj:0)
$_209_z                                            13 	(obj:0)
$_234_y                                            17 	(obj:0)
$_234_z                                            18 	(obj:0)
$_169_y                                            10 	(obj:0)
$_169_z                                            20 	(obj:0)
$_266_y                                            17 	(obj:0)
$_266_z                                            17 	(obj:0)
$_228_y                                            14 	(obj:0)
$_228_z                                            17 	(obj:0)
$_24_y                                             10 	(obj:0)
$_24_z                                             14 	(obj:0)
$_305_y                                            12 	(obj:0)
$_305_z                                            17 	(obj:0)
$_23_y                                             23 	(obj:0)
$_23_z                                             14 	(obj:0)
$_20_y                                             13 	(obj:0)
$_20_z                                             23 	(obj:0)
$_121_y                                            19 	(obj:0)
$_121_z                                            17 	(obj:0)
$_61_y                                             11 	(obj:0)
$_61_z                                             10 	(obj:0)
$_260_y                                            13 	(obj:0)
$_260_z                                            13 	(obj:0)
$_25_y                                             18 	(obj:0)
$_25_z                                             12 	(obj:0)
$_316_y                                            16 	(obj:0)
$_316_z                                            17 	(obj:0)
$_312_y                                            17 	(obj:0)
$_312_z                                            19 	(obj:0)
$_176_y                                            13 	(obj:0)
$_176_z                                            15 	(obj:0)
$_202_y                                            13 	(obj:0)
$_202_z                                            20 	(obj:0)
$_289_y                                            12 	(obj:0)
$_289_z                                            13 	(obj:0)
$_57_y                                             13 	(obj:0)
$_57_z                                             18 	(obj:0)
$_54_y                                              9 	(obj:0)
$_54_z                                              9 	(obj:0)
$_308_y                                            16 	(obj:0)
$_308_z                                            15 	(obj:0)
$_69_y                                             14 	(obj:0)
$_69_z                                             16 	(obj:0)
$_212_y                                            13 	(obj:0)
$_212_z                                            17 	(obj:0)
$_47_y                                             15 	(obj:0)
$_47_z                                             16 	(obj:0)
$_50_y                                              9 	(obj:0)
$_50_z                                             14 	(obj:0)
$_282_y                                            20 	(obj:0)
$_282_z                                            19 	(obj:0)
$_28_y                                              8 	(obj:0)
$_28_z                                             23 	(obj:0)
$_103_y                                            19 	(obj:0)
$_103_z                                            21 	(obj:0)
$_26_y                                             14 	(obj:0)
$_26_z                                             12 	(obj:0)
$_180_y                                             9 	(obj:0)
$_180_z                                            19 	(obj:0)
$_218_y                                            17 	(obj:0)
$_218_z                                            21 	(obj:0)
